NAME: Random_95_5
ELLAPSED_TIME_(ms): 370
TOUR_SIZE: 2258
TOUR_SECTION
0
57
55
11
82
64
70
58
25
43
19
44
60
7
6
38
4
14
80
8
88
30
5
46
54
91
62
84
51
49
29
27
28
22
1
89
76
20
63
83
34
81
15
92
41
52
86
48
17
59
68
73
65
35
31
3
72
87
61
74
13
85
56
23
36
32
77
71
78
53
45
12
26
66
21
42
75
94
9
16
2
69
18
39
47
90
10
37
67
93
79
24
50
40
33
0
EOF
